c FILE: DSJR500.1
c
c SOURCE: David Johnson (dsj@research.att.com)
c
c DESCRIPTION: Geometric random graph.  DSJRx.y[c] is 
c              a geometric graph with x nodes randomly
c              distributed in the unit square, and and edge 
c              if the length of the corresponding line is
c              less than y.  This graph is then complemented 
c              if a "c" ends the file name.  Graphs were used in
c 
c              "Optimization by Simulated Annealing: An
c               Experimental Evaluation; Part II, Graph
c               Coloring and Number Partitioning" by
c              David S. Johnson, Cecilia R. Aragon, 
c              Lyle A. McGeoch and Catherine Schevon
c              Operations Research, 39, 378-406 (1991)
c
p edge 500 7110
e 34 24
e 78 16
e 80 8
e 85 64
e 87 40
e 89 24
e 91 24
e 92 56
e 95 64
e 99 80
e 102 72
e 105 72
e 107 32
e 111 16
e 112 8
e 112 56
e 116 16
e 116 64
e 117 88
e 119 96
e 125 48
e 126 40
e 133 8
e 133 112
e 134 104
e 136 24
e 137 64
e 138 128
e 141 48
e 142 128
e 147 40
e 152 128
e 153 128
e 153 152
e 155 120
e 158 128
e 158 152
e 161 120
e 162 24
e 162 40
e 163 48
e 164 72
e 166 160
e 167 72
e 168 40
e 170 144
e 177 128
e 178 48
e 182 176
e 183 128
e 183 152
e 184 72
e 189 88
e 192 104
e 192 176
e 193 56
e 193 112
e 195 48
e 196 80
e 197 72
e 197 184
e 198 24
e 198 136
e 199 144
e 202 104
e 205 176
e 207 200
e 210 48
e 211 16
e 212 160
e 213 40
e 213 88
e 215 32
e 215 72
e 216 200
e 216 208
e 217 64
e 218 184
e 220 184
e 222 152
e 226 56
e 226 112
e 227 24
e 228 48
e 231 152
e 234 48
e 237 232
e 238 160
e 239 80
e 240 104
e 243 16
e 244 72
e 245 224
e 246 64
e 247 64
e 250 64
e 252 40
e 252 88
e 252 168
e 254 152
e 255 200
e 257 40
e 257 88
e 257 168
e 258 240
e 259 248
e 260 144
e 261 152
e 263 144
e 264 64
e 264 256
e 265 48
e 266 192
e 268 136
e 274 224
e 275 8
e 275 56
e 275 112
e 277 88
e 278 272
e 281 128
e 282 88
e 283 128
e 283 152
e 287 8
e 287 96
e 290 32
e 291 136
e 292 232
e 296 128
e 297 56
e 297 112
e 298 40
e 298 96
e 298 168
e 299 232
e 300 32
e 300 48
e 303 24
e 303 136
e 305 304
e 306 272
e 307 24
e 307 168
e 307 232
e 309 104
e 309 240
e 311 200
e 312 80
e 312 88
e 313 32
e 313 48
e 314 128
e 314 144
e 314 296
e 315 136
e 315 288
e 316 64
e 316 264
e 317 72
e 317 184
e 318 104
e 318 192
e 318 240
e 319 16
e 321 144
e 321 248
e 322 208
e 323 72
e 323 184
e 324 144
e 324 296
e 327 32
e 327 48
e 328 88
e 329 16
e 330 280
e 331 160
e 332 136
e 333 224
e 334 144
e 334 256
e 334 264
e 335 232
e 336 16
e 336 64
e 337 48
e 338 8
e 339 320
e 341 144
e 341 296
e 342 32
e 343 128
e 343 152
e 343 296
e 346 256
e 347 40
e 347 88
e 347 328
e 349 192
e 350 128
e 350 152
e 351 32
e 351 48
e 353 24
e 353 136
e 355 232
e 359 280
e 362 328
e 362 352
e 363 256
e 364 328
e 364 344
e 365 104
e 365 272
e 366 104
e 366 192
e 366 240
e 368 200
e 368 320
e 369 360
e 370 32
e 371 24
e 371 96
e 371 136
e 371 288
e 372 160
e 373 240
e 373 272
e 375 24
e 375 96
e 375 136
e 376 48
e 379 40
e 379 80
e 379 88
e 379 168
e 379 312
e 380 32
e 381 16
e 382 376
e 383 320
e 383 376
e 384 272
e 385 360
e 386 128
e 386 296
e 388 224
e 388 360
e 389 232
e 389 344
e 390 48
e 391 232
e 392 8
e 392 80
e 392 112
e 393 48
e 393 376
e 394 176
e 394 192
e 394 280
e 395 120
e 396 128
e 396 152
e 397 360
e 398 16
e 399 360
e 400 224
e 400 360
e 401 208
e 402 160
e 403 8
e 403 80
e 403 392
e 404 24
e 404 136
e 405 160
e 406 8
e 406 56
e 406 112
e 406 392
e 408 248
e 409 208
e 409 216
e 411 16
e 412 144
e 414 40
e 414 168
e 414 232
e 416 96
e 417 344
e 419 352
e 420 176
e 420 280
e 421 144
e 422 16
e 423 40
e 423 88
e 423 328
e 424 384
e 425 208
e 425 304
e 426 344
e 426 352
e 427 16
e 428 32
e 428 48
e 429 144
e 429 248
e 429 264
e 430 40
e 430 168
e 431 128
e 431 144
e 431 296
e 432 120
e 433 16
e 433 64
e 433 336
e 435 304
e 435 376
e 437 48
e 438 424
e 439 88
e 439 312
e 439 328
e 440 272
e 440 384
e 441 208
e 441 304
e 442 304
e 442 376
e 443 320
e 444 24
e 444 96
e 447 256
e 449 176
e 449 192
e 450 8
e 450 56
e 450 112
e 450 416
e 451 48
e 451 376
e 452 40
e 452 96
e 452 168
e 453 24
e 453 96
e 453 288
e 454 32
e 454 72
e 455 296
e 457 192
e 457 400
e 458 16
e 458 336
e 459 16
e 459 64
e 459 336
e 460 304
e 461 456
e 462 104
e 462 192
e 462 240
e 463 40
e 463 168
e 464 248
e 464 408
e 465 200
e 465 368
e 466 8
e 466 80
e 466 168
e 466 392
e 468 448
e 469 136
e 470 288
e 471 32
e 471 48
e 472 16
e 472 64
e 472 336
e 473 208
e 473 304
e 474 24
e 474 96
e 474 136
e 475 200
e 477 24
e 477 96
e 477 136
e 478 152
e 478 408
e 478 464
e 479 344
e 480 128
e 480 152
e 482 80
e 482 312
e 482 392
e 483 40
e 483 88
e 483 168
e 485 232
e 486 184
e 487 8
e 487 56
e 487 112
e 488 40
e 488 168
e 488 328
e 489 152
e 489 480
e 490 328
e 490 344
e 490 352
e 491 88
e 491 328
e 492 232
e 493 120
e 493 432
e 493 440
e 494 200
e 496 104
e 496 240
e 496 384
e 496 424
e 497 448
e 498 8
e 498 96
e 498 392
e 499 232
e 499 344
e 500 24
e 500 96
e 500 136
